words_hard_train/445.qaiger
aag 82 15 0 1 67
2
4
12
14
18
22
26
30
44
54
64
80
96
112
146
164
6 2 4
8 3 5
10 7 9
16 13 15
20 16 19
24 20 23
28 24 27
32 28 31
34 10 33
36 11 32
38 35 37
40 12 14
42 41 17
46 43 45
48 42 44
50 47 49
52 50 12
56 52 54
58 57 49
60 17 18
62 61 21
66 63 65
68 62 64
70 67 69
72 59 70
74 73 69
76 21 22
78 77 25
82 79 81
84 78 80
86 83 85
88 75 86
90 89 85
92 25 26
94 93 29
98 95 97
100 94 96
102 99 101
104 91 102
106 105 101
108 29 30
110 109 33
114 111 113
116 110 112
118 115 117
120 107 118
122 121 117
124 39 123
126 38 122
128 125 127
130 58 71
132 131 73
134 51 13
136 134 55
138 137 57
140 133 139
142 74 87
144 143 89
148 145 147
150 90 103
152 151 105
154 148 153
156 106 119
158 157 121
160 154 159
162 140 160
164 128 163
i0 2 y1[0]
i1 1 x1[6]
i2 1 x1[0]
i3 1 x1[1]
i4 1 x1[2]
i5 1 x1[3]
i6 1 x1[4]
i7 1 x1[5]
i8 2 y1[5]
i9 2 y1[6]
i10 2 y1[4]
i11 2 y1[3]
i12 2 y1[2]
i13 2 y1[1]
i14 2 y1[7]
o0 bv[0]
c
simplified
  >=
    subtract
      reverse
        2 y1
      add
        1 x1
        1 x1
    1
