words_hard_train/445.qaiger.qdimacs
p cnf 82 202
a 2 6 7 9 11 13 15 0
e 1 3 4 5 8 10 12 14 16 17 18 19 20 21 22 23 24 25 26 27 28 29 30 31 32 33 34 35 36 37 38 39 40 41 42 43 44 45 46 47 48 49 50 51 52 53 54 55 56 57 58 59 60 61 62 63 64 65 66 67 68 69 70 71 72 73 74 75 76 77 78 79 80 81 82 0
-1 -2 3 0
1 -3 0
2 -3 0
1 2 4 0
-1 -4 0
-2 -4 0
3 4 5 0
-3 -5 0
-4 -5 0
6 7 8 0
-6 -8 0
-7 -8 0
-8 9 10 0
8 -10 0
-9 -10 0
-10 11 12 0
10 -12 0
-11 -12 0
-12 13 14 0
12 -14 0
-13 -14 0
-14 15 16 0
14 -16 0
-15 -16 0
-5 16 17 0
5 -17 0
-16 -17 0
5 -16 18 0
-5 -18 0
16 -18 0
17 18 19 0
-17 -19 0
-18 -19 0
-6 -7 20 0
6 -20 0
7 -20 0
20 8 21 0
-20 -21 0
-8 -21 0
21 22 23 0
-21 -23 0
-22 -23 0
-21 -22 24 0
21 -24 0
22 -24 0
23 24 25 0
-23 -25 0
-24 -25 0
-25 -6 26 0
25 -26 0
6 -26 0
-26 -27 28 0
26 -28 0
27 -28 0
28 24 29 0
-28 -29 0
-24 -29 0
8 -9 30 0
-8 -30 0
9 -30 0
30 10 31 0
-30 -31 0
-10 -31 0
31 32 33 0
-31 -33 0
-32 -33 0
-31 -32 34 0
31 -34 0
32 -34 0
33 34 35 0
-33 -35 0
-34 -35 0
29 -35 36 0
-29 -36 0
35 -36 0
36 34 37 0
-36 -37 0
-34 -37 0
10 -11 38 0
-10 -38 0
11 -38 0
38 12 39 0
-38 -39 0
-12 -39 0
39 40 41 0
-39 -41 0
-40 -41 0
-39 -40 42 0
39 -42 0
40 -42 0
41 42 43 0
-41 -43 0
-42 -43 0
37 -43 44 0
-37 -44 0
43 -44 0
44 42 45 0
-44 -45 0
-42 -45 0
12 -13 46 0
-12 -46 0
13 -46 0
46 14 47 0
-46 -47 0
-14 -47 0
47 48 49 0
-47 -49 0
-48 -49 0
-47 -48 50 0
47 -50 0
48 -50 0
49 50 51 0
-49 -51 0
-50 -51 0
45 -51 52 0
-45 -52 0
51 -52 0
52 50 53 0
-52 -53 0
-50 -53 0
14 -15 54 0
-14 -54 0
15 -54 0
54 16 55 0
-54 -55 0
-16 -55 0
55 56 57 0
-55 -57 0
-56 -57 0
-55 -56 58 0
55 -58 0
56 -58 0
57 58 59 0
-57 -59 0
-58 -59 0
53 -59 60 0
-53 -60 0
59 -60 0
60 58 61 0
-60 -61 0
-58 -61 0
19 61 62 0
-19 -62 0
-61 -62 0
-19 -61 63 0
19 -63 0
61 -63 0
62 63 64 0
-62 -64 0
-63 -64 0
-29 35 65 0
29 -65 0
-35 -65 0
65 36 66 0
-65 -66 0
-36 -66 0
25 6 67 0
-25 -67 0
-6 -67 0
-67 27 68 0
67 -68 0
-27 -68 0
68 28 69 0
-68 -69 0
-28 -69 0
66 69 70 0
-66 -70 0
-69 -70 0
-37 43 71 0
37 -71 0
-43 -71 0
71 44 72 0
-71 -72 0
-44 -72 0
72 73 74 0
-72 -74 0
-73 -74 0
-45 51 75 0
45 -75 0
-51 -75 0
75 52 76 0
-75 -76 0
-52 -76 0
-74 76 77 0
74 -77 0
-76 -77 0
-53 59 78 0
53 -78 0
-59 -78 0
78 60 79 0
-78 -79 0
-60 -79 0
-77 79 80 0
77 -80 0
-79 -80 0
-70 -80 81 0
70 -81 0
80 -81 0
-64 81 82 0
64 -82 0
-81 -82 0
82 0
